


Minimize
x_0 + x_1 + x_2 + x_3 + x_4 + x_5 + x_6 + x_7 + x_8 + x_9 + x_10 + x_11 + x_12 + x_13 + x_14 + x_15 + x_16 + x_17 + x_18 + x_19 + x_20 + x_21 + x_22 + x_23 + x_24 + x_25 + x_26 + x_27 + x_28 + x_29 + x_30 + x_31 + x_32 + x_33 + x_34 + x_35 + x_36 + x_37 + x_38 + x_39 + x_40 + x_41 + x_42 + x_43 + x_44 + x_45 + x_46 + x_47 

Subject To
x_0   +  x_16   +  x_1   +  x_17   +  x_2   +  x_18   +  x_3   +  x_19  - 5 d0 >= 0
 d0  - x_0 >= 0
 d0  - x_16 >= 0
 d0  - x_1 >= 0
 d0  - x_17 >= 0
 d0  - x_2 >= 0
 d0  - x_18 >= 0
 d0  - x_3 >= 0
 d0  - x_19 >= 0
x_4   +  x_20   +  x_5   +  x_21   +  x_6   +  x_22   +  x_7   +  x_23  - 5 d1 >= 0
 d1  - x_4 >= 0
 d1  - x_20 >= 0
 d1  - x_5 >= 0
 d1  - x_21 >= 0
 d1  - x_6 >= 0
 d1  - x_22 >= 0
 d1  - x_7 >= 0
 d1  - x_23 >= 0
x_8   +  x_24   +  x_9   +  x_25   +  x_10   +  x_26   +  x_11   +  x_27  - 5 d2 >= 0
 d2  - x_8 >= 0
 d2  - x_24 >= 0
 d2  - x_9 >= 0
 d2  - x_25 >= 0
 d2  - x_10 >= 0
 d2  - x_26 >= 0
 d2  - x_11 >= 0
 d2  - x_27 >= 0
x_12   +  x_28   +  x_13   +  x_29   +  x_14   +  x_30   +  x_15   +  x_31  - 5 d3 >= 0
 d3  - x_12 >= 0
 d3  - x_28 >= 0
 d3  - x_13 >= 0
 d3  - x_29 >= 0
 d3  - x_14 >= 0
 d3  - x_30 >= 0
 d3  - x_15 >= 0
 d3  - x_31 >= 0
x_16   +  x_32   +  x_20   +  x_33   +  x_24   +  x_34   +  x_28   +  x_35  - 5 d4 >= 0
 d4  - x_16 >= 0
 d4  - x_32 >= 0
 d4  - x_20 >= 0
 d4  - x_33 >= 0
 d4  - x_24 >= 0
 d4  - x_34 >= 0
 d4  - x_28 >= 0
 d4  - x_35 >= 0
x_17   +  x_36   +  x_21   +  x_37   +  x_25   +  x_38   +  x_29   +  x_39  - 5 d5 >= 0
 d5  - x_17 >= 0
 d5  - x_36 >= 0
 d5  - x_21 >= 0
 d5  - x_37 >= 0
 d5  - x_25 >= 0
 d5  - x_38 >= 0
 d5  - x_29 >= 0
 d5  - x_39 >= 0
x_18   +  x_40   +  x_22   +  x_41   +  x_26   +  x_42   +  x_30   +  x_43  - 5 d6 >= 0
 d6  - x_18 >= 0
 d6  - x_40 >= 0
 d6  - x_22 >= 0
 d6  - x_41 >= 0
 d6  - x_26 >= 0
 d6  - x_42 >= 0
 d6  - x_30 >= 0
 d6  - x_43 >= 0
x_19   +  x_44   +  x_23   +  x_45   +  x_27   +  x_46   +  x_31   +  x_47  - 5 d7 >= 0
 d7  - x_19 >= 0
 d7  - x_44 >= 0
 d7  - x_23 >= 0
 d7  - x_45 >= 0
 d7  - x_27 >= 0
 d7  - x_46 >= 0
 d7  - x_31 >= 0
 d7  - x_47 >= 0
x_32   +  x_48   +  x_36   +  x_49   +  x_40   +  x_50   +  x_44   +  x_51  - 5 d8 >= 0
 d8  - x_32 >= 0
 d8  - x_48 >= 0
 d8  - x_36 >= 0
 d8  - x_49 >= 0
 d8  - x_40 >= 0
 d8  - x_50 >= 0
 d8  - x_44 >= 0
 d8  - x_51 >= 0
x_33   +  x_52   +  x_37   +  x_53   +  x_41   +  x_54   +  x_45   +  x_55  - 5 d9 >= 0
 d9  - x_33 >= 0
 d9  - x_52 >= 0
 d9  - x_37 >= 0
 d9  - x_53 >= 0
 d9  - x_41 >= 0
 d9  - x_54 >= 0
 d9  - x_45 >= 0
 d9  - x_55 >= 0
x_34   +  x_56   +  x_38   +  x_57   +  x_42   +  x_58   +  x_46   +  x_59  - 5 d10 >= 0
 d10  - x_34 >= 0
 d10  - x_56 >= 0
 d10  - x_38 >= 0
 d10  - x_57 >= 0
 d10  - x_42 >= 0
 d10  - x_58 >= 0
 d10  - x_46 >= 0
 d10  - x_59 >= 0
x_35   +  x_60   +  x_39   +  x_61   +  x_43   +  x_62   +  x_47   +  x_63  - 5 d11 >= 0
 d11  - x_35 >= 0
 d11  - x_60 >= 0
 d11  - x_39 >= 0
 d11  - x_61 >= 0
 d11  - x_43 >= 0
 d11  - x_62 >= 0
 d11  - x_47 >= 0
 d11  - x_63 >= 0
x_0 + x_1 + x_2 + x_3 + x_4 + x_5 + x_6 + x_7 + x_8 + x_9 + x_10 + x_11 + x_12 + x_13 + x_14 + x_15 + x_16 + x_17 + x_18 + x_19 + x_20 + x_21 + x_22 + x_23 + x_24 + x_25 + x_26 + x_27 + x_28 + x_29 + x_30 + x_31 + x_32 + x_33 + x_34 + x_35 + x_36 + x_37 + x_38 + x_39 + x_40 + x_41 + x_42 + x_43 + x_44 + x_45 + x_46 + x_47  >= 1 



Binary
x_0
x_1
x_2
x_3
x_4
x_5
x_6
x_7
x_8
x_9
x_10
x_11
x_12
x_13
x_14
x_15
x_16
x_17
x_18
x_19
x_20
x_21
x_22
x_23
x_24
x_25
x_26
x_27
x_28
x_29
x_30
x_31
x_32
x_33
x_34
x_35
x_36
x_37
x_38
x_39
x_40
x_41
x_42
x_43
x_44
x_45
x_46
x_47
x_48
x_49
x_50
x_51
x_52
x_53
x_54
x_55
x_56
x_57
x_58
x_59
x_60
x_61
x_62
x_63
d0
d1
d2
d3
d4
d5
d6
d7
d8
d9
d10
d11
End
